&BANDS
 outdir         = './work/',
 prefix         = 'InAs',
 filband        = 'InAs.bands',
 lsym           = .TRUE.
/
