&INPUTPP
     calculation   = 'eps',
     prefix        = 'GaAs',
     outdir        = './work/',
/

&ENERGY_GRID
     smeartype     = 'gauss',
     intersmear    = 0.10,
     intrasmear    = 0.00,
     wmin          = 0.00,
     wmax          = 15.0,
     nw            = 1000
/