&CONTROL
    calculation   = 'scf',
    prefix        = 'GaAs',
    tprnfor       = .TRUE.,
    tstress       = .TRUE.,
    wf_collect    = .TRUE.,
    etot_conv_thr =  1.0000000000d-06,
    forc_conv_thr =  1.0000000000d-05,
    pseudo_dir    = '../../pseudo/',
    outdir        = './work/'
/

&SYSTEM
    celldm(1)   = 10.447402,
    ibrav       = 2,
    nat         = 2,
    ntyp        = 2,    
    ecutwfc     = 80.0,
    nbnd        = 32
/

&ELECTRONS
    diagonalization  = 'david',
    diago_full_acc   = .TRUE.,
    conv_thr         = 1.0000000000d-10,
    mixing_beta      = 0.15
/

ATOMIC_SPECIES
Ga     68.92600  Ga.pz-hgh.upf
As     74.92200  As.pz-hgh.upf

ATOMIC_POSITIONS (crystal)
Ga      0.000000   0.000000   0.000000  
As      0.250000   0.250000   0.250000 

K_POINTS (automatic)
8 8 8 1 1 1

