&CONTROL
    calculation   = 'nscf',    
    prefix        = 'GaSb',
    wf_collect    = .TRUE.,
    etot_conv_thr =  1.0000000000d-06,
    forc_conv_thr =  1.0000000000d-05,
    pseudo_dir    = '../pseudo/',
    outdir        = './work/',
    verbosity     = 'high'
/

&SYSTEM
    celldm(1)   = 11.299416,
    ibrav       = 2,
    nat         = 2,
    ntyp        = 2,    
    ecutwfc     = 80.0
    nbnd        = 32,    
    nosym       = .TRUE.,
    noinv       = .TRUE.,
/

&ELECTRONS
    diagonalization  = 'david',
    diago_full_acc   = .TRUE.,
    conv_thr         = 1.0000000000d-09,
    mixing_beta      = 0.15
/

ATOMIC_SPECIES
Ga     69.72300  Ga.pz-hgh.upf
Sb    121.76000  Sb.pz-hgh.upf

ATOMIC_POSITIONS (crystal)
Ga      0.000000   0.000000   0.000000  
Sb      0.250000   0.250000   0.250000 

K_POINTS (automatic)
32 32 32 1 1 1
