&BANDS
 outdir         = './work/',
 prefix         = 'InP',
 filband        = 'InP.bands',
 lsym           = .TRUE.
/
