&CONTROL
    calculation   = 'scf',
    prefix        = 'InP',
    tprnfor       = .TRUE.,
    tstress       = .TRUE.,
    wf_collect    = .TRUE.,
    etot_conv_thr =  1.0000000000d-06,
    forc_conv_thr =  1.0000000000d-05,
    pseudo_dir    = '../../pseudo/',
    outdir        = './work/'
/

&SYSTEM
    celldm(1)   = 10.823792,
    ibrav       = 2,
    nat         = 2,
    ntyp        = 2,    
    ecutwfc     = 80.0,
    nbnd        = 32
/

&ELECTRONS
    diagonalization  = 'david',
    diago_full_acc   = .TRUE.,
    conv_thr         = 1.0000000000d-10,
    mixing_beta      = 0.15
/

ATOMIC_SPECIES
In    114.81800  In.pz-hgh.upf
P      30.97376  P.pz-hgh.upf

ATOMIC_POSITIONS (crystal)
In      0.000000   0.000000   0.000000  
P       0.250000   0.250000   0.250000 

K_POINTS (automatic)
8 8 8 1 1 1

