&CONTROL
    calculation   = 'bands',    
    prefix        = 'InP',
    wf_collect    = .TRUE.,
    etot_conv_thr =  1.0000000000d-06,
    forc_conv_thr =  1.0000000000d-05,
    pseudo_dir    = '../../pseudo/',
    outdir        = './work/',
    verbosity     = 'high'
/

&SYSTEM
    celldm(1)   = 10.823792,
    ibrav       = 2,
    nat         = 2,
    ntyp        = 2,    
    ecutwfc     = 80.0,
    nbnd        = 32
/

&ELECTRONS
    diagonalization  = 'david',
    diago_full_acc   = .TRUE.,
    conv_thr         = 1.0000000000d-10,
    mixing_beta      = 0.15
/

ATOMIC_SPECIES
In    114.81800  In.pz-hgh.upf
P      30.97376  P.pz-hgh.upf

ATOMIC_POSITIONS (crystal)
In      0.000000   0.000000   0.000000  
P       0.250000   0.250000   0.250000 

K_POINTS (crystal_b)
10
0.0000   0.0000   0.0000   60 ! \Gamma
0.5000   0.0000   0.5000   50 ! X
0.5000   0.2500   0.7500   50 ! W
0.3750   0.3750   0.7500   50 ! K
0.0000   0.0000   0.0000   60 ! \Gamma
0.5000   0.5000   0.5000   60 ! L
0.6250   0.2500   0.6250   50 ! U
0.5000   0.2500   0.7500   50 ! W
0.5000   0.5000   0.5000   60 ! L
0.3750   0.3750   0.7500   50 ! K
