&BANDS
 outdir         = './work/',
 prefix         = 'GaSb',
 filband        = 'GaSb.bands',
 lsym           = .TRUE.
/
